723,140
910,91
702,385
708,459
711,406
598,662
491,780
1095,341
1194,240
975,257
923,230
778,336
1101,406
293,124
387,257
487,265
653,397
839,624
817,673
718,643
512,529
575,512
947,599
1066,467
729,371
396,498
441,284
